s td 37 18 55
b 1 45 51
b 2 11 16 47
b 3 10 22 31
b 4 3 24 32
b 5 2 33 44
b 6 2 39 42
b 7 3 12 23 35
b 8 8 12 38 54
b 9 1 2 3 4 5 6 10 14 17 20 21 23 30 41 48 50 52 53
b 10 6 17 23 25 48 50 52
b 11 7 17 25 52
b 12 17 23 25 26 48
b 13 1 2 3 4 5 6 10 14 17 20 21 23 27 30 41 48 50 53
b 14 1 2 3 4 5 6 10 17 20 21 23 27 38 41 48 50 53
b 15 1 3 4 5 6 10 15 20 21 23 27 38 41 48 50 53
b 16 1 3 4 5 6 10 15 21 23 27 31 38 41 48 53
b 17 1 3 4 5 12 15 23 27 31 38 41 48 53
b 18 1 4 8 12 27 38 48
b 19 1 2 38 41 44 50
b 20 2 5 6 14 27 39 48
b 21 1 2 3 4 5 6 11 14 17 20 21 23 30 41 47 50 52 53
b 22 1 2 3 4 5 6 11 17 20 21 23 30 37 47 50 52 53
b 23 2 3 4 5 11 17 20 21 23 30 37 43 47 50 52 53
b 24 3 4 5 11 17 18 20 21 23 37 43 47 50 52 53
b 25 3 4 5 11 18 20 21 23 32 37 43 50 52 53
b 26 4 5 11 18 20 21 23 32 37 43 49 50 52
b 27 11 20 23 28 32 37 43 49 50 52
b 28 9 11 20 28 49 50
b 29 1 2 3 11 17 20 21 23 37 52 55
b 30 2 3 11 17 21 23 29 52 55
b 31 2 3 17 23 29 34
b 32 1 2 3 4 5 11 14 20 21 23 30 40 41 47
b 33 2 3 5 11 14 21 23 30 40 41 45 47
b 34 2 3 5 11 14 21 30 36 45 47
b 35 2 3 5 11 14 21 36 46 47
b 36 3 5 11 13 14 21 36 46
b 37 3 11 13 14 19 21
1 33
2 21
3 16
4 25
5 19
6 20
7 17
8 18
9 10
9 13
9 21
10 11
10 12
13 14
13 20
14 15
14 19
15 16
16 17
17 18
21 22
21 32
22 23
22 29
23 24
24 25
25 26
26 27
27 28
29 30
30 31
32 33
33 34
34 35
35 36
36 37
